%mem=64GB
%nprocshared=24
%CPU=0-23
%GPUCPU=0-1=0,13
#b3lyp def2SVP opt freq=noraman

Default title

0 1
#b3lyp def2SVP opt freq=noraman

Default title

0 1
#b3lyp def2SVP opt freq=noraman

Default title

0 1
 C                 -6.26174785    3.62462801    1.22504880
 C                 -4.94261489    4.06364300    1.39104123
 C                 -4.00663325    3.88795454    0.36348236
 C                 -4.41252283    3.29356029   -0.87910865
 C                 -5.73318918    2.84089334   -1.01430545
 C                 -6.65259118    3.00606654    0.03084478
 H                 -6.97259772    3.76057110    2.01315536
 H                 -4.64768183    4.53206367    2.30673581
 H                 -6.04206705    2.36858699   -1.92338255
 H                 -7.65817498    2.65918910   -0.08481533
 C                 -2.54364086    4.33394055    0.59110572
 H                 -2.50104727    5.19002863    1.23157351
 H                 -1.98107000    3.53948512    1.03523926
 C                 -1.99608321    4.65753473   -0.77340343
 H                 -0.96666895    4.94749768   -0.73982133
 H                 -2.56672633    5.45665648   -1.19845738
 C                 -2.18542723    3.38966607   -1.58786726
 O                 -3.51197601    3.13125386   -2.01642508
 H                 -1.73330254    3.99969638   -3.21305532
 O                 -1.50214395    3.47790801   -3.98500260
 H                 -2.06978837    2.70505187   -4.03053492
 O                 -1.23233950    2.61073532   -1.84951818

